
  32   50
   9   13   11    5   15   16   14    1   15    9   10    4    4   19   16    6   10   12   19   13    8   12   11    7   11   10   19   10    9    8    9   15    0    0    0    0    0    0    0    0    0    0    0    0    0    0    0    0    0    0

   0   0   0   0   0   0   0   0   0   0   0   0   0   0   0   0   0   0   0   0   0   0   0   0   0   0   0   0   0   0   0   0   0   0   0   0   0   0   0   0   0   0   0   0   0   0   0   0   0   0   0  11 2 3 4 5 6 8 9 10 12 14 19 
   7   0   0   2   0   0   7   0   0   0   7   0   0   0   0   0   0   0   0  10   0   0   0   0   0   0   0   0   0   0   0   0   0   0   0   0   0   0   0   0   0   0   0   0   0   0   0   0   0   0   0   7 25 24 23 16 15 13 7 
   2   7   0   0   0   8   0   0   0   0   0   0   0   0   0   0   0   8   0   0   0   0   0   0   0   6   0   0   0   8   0   0   0   0   0   0   0   0   0   0   0   0   0   0   0   0   0   0   0   0   0   4 15 13 11 7 
   4   4   7   8   0   0   0   0   0   0   0   0   0   0   0   0   0   0   0   0  10   0   0   0   7   8   0   2   0   0   0   0   8   0   0   0   0   0   0   0   0   0   0   0   0   0   0   0   0   0   0   6 31 30 25 17 16 15 
   1   0   0   0   0   0   0   0   0   0   0   0   0   0   0   0   0   0   0   1   3   0   8   0   0   0   0  10   0   0   0   0   0   0   0   0   0   0   0   0   0   0   0   0   0   0   0   0   0   0   0   7 30 24 23 22 21 20 18 
  10   0   0   0   0   0   0   9   0   0   0   0   0   0   0   5   0   0   0   0   0   0   0   0   0   0   0   0   0   0   0   0   0   0   0   0   0   0   0   0   0   0   0   0   0   0   0   0   0   0   0   5 31 28 22 20 11 
   3   0   0   0   0   0   0   0   0   1   0   9   0   0   0   7   0   9   2   0   0   0   0   0   3   0   0   2   0   0   0   0   0   0   0   0   0   0   0   0   0   0   0   0   0   0   0   0   0   0   0   6 31 30 29 28 27 20 
  10   0   0   0   0   0   5   0   0   0   0   0   0   0   0   0   1   0   0   0   2   0   0   0   0   0   0   0   0   0   0   0   0   0   0   0   0   0   0   0   0   0   0   0   0   0   0   0   0   0   0   3 22 21 18 
   5   0   0   0   0   0   0   0   1   8   0   0   0   0   0   0   0   0   0   9   0   0   0   0   0   0   0   0   0   0   0   0   0   0   0   0   0   0   0   0   0   0   0   0   0   0   0   0   0   0   0   3 30 22 18 
   6   0   0   0   0   0   0   3   0   0   0   0   0   0   0   7   0   3   0   0   0   0   0   0   0   0   0   0   3   0   0   0   0   0   0   0   0   0   0   0   0   0   0   0   0   0   0   0   0   0   0   3 30 20 18 
   4   0   0   8   0   0   0   0   0   0   5   0   0   0   6   0   6   0   0   0   0   0   0   0   0   0   0   0   0   0   0   0   0   0   0   0   0   0   0   0   0   0   0   0   0   0   0   0   0   0   0   4 30 27 26 23 
  10   0   0   0   2   0   0   0   0   0   0   0   0   0   0   0   0   0   0   0   0   0   0   0   0   0   0   8   0   0   0   0   0   0   0   0   0   0   0   0   0   0   0   0   0   0   0   0   0   0   0   4 28 27 21 20 
   8   0   8   5   0   0   0   8   0   1   0   0   0   0   0   0   0   0   0   4   0   0   0   0   0   0   0   0   0   1   2   0   0   0   0   0   0   0   0   0   0   0   0   0   0   0   0   0   0   0   0   3 27 22 20 
   6   0   0   0   0   0   9   0   0   0   3   0   0   0   0   0   0   0   0   0   0   0   0   0   0   0   0   0   0   0   1   0   0   0   0   0   0   0   0   0   0   0   0   0   0   0   0   0   0   0   0   4 29 28 27 26 
   8   0   2   0   0   0   5   0   0   0   0   0   0   0  10   0   0   0   0   0   0   0   0   1   0   0   0   0   0   2   0   0   0   0   0   0   0   0   0   0   0   0   0   0   0   0   0   0   0   0   0   3 27 21 20 
   4   0   0   0   0   0   7   0   0   0   0   0   0   0   8   0   0   0   0   0   0   0   0   0   0   0   5   7   7   5   7   0   2   0   0   0   0   0   0   0   0   0   0   0   0   0   0   0   0   0   0   3 29 28 20 
   4   0   0   0   0   0   0   0   0   0   0   0   2   0   0   0   1   0   0   6   0   0   0   0   0   0   0   7   0   3   0   0   0   0   0   0   0   0   0   0   0   0   0   0   0   0   0   0   0   0   0   3 28 27 21 
   2   0   0   0   0   0   0   0   0   0   0   0   0   0   0   0   0   0   4   0   0   0   0   9   0   5   0   0   0   0   0   0   0   0   0   0   0   0   0   0   0   0   0   0   0   0   0   0   0   0   0   2 28 27 
   4   0   0   0   1  10   0   0   0   5   0   0   0   0   0   0   0   0   0   0   0   0   7   0   0   0   0   0   0   0   0   0  10   0   0   0   0   0   0   0   0   0   0   0   0   0   0   0   0   0   0   1 20 
   5   0   0   0   0   0   0   0   0  10   0   0   0   0   0   0   0   0   0   0   0   8   0   0   0   0   0   8   0   0   0   9   0   0   0   0   0   0   0   0   0   0   0   0   0   0   0   0   0   0   0   1 26 
   9   0   0   0   0   0   0   0   0   0   0   7   4   2   0   8   0   0   9   0   0   0   0   0   0   0   9   0   0   1   0   0   0   0   0   0   0   0   0   0   0   0   0   0   0   0   0   0   0   0   0   1 26 
   9   0   0   0   0   0   2   0   0   0   5   0   0   3   0   0   0   0   0   0   0   0   0   0   0   0   0   0   6   0   1   0   0   0   0   0   0   0   0   0   0   0   0   0   0   0   0   0   0   0   0   1 29 
   4   0   0   8   0   0   0   0   0   1   6   0   0   0   0   0   0   0   0   0   0   0   0   0   0   0   0   5   0   0   0   0   0   0   0   0   0   0   0   0   0   0   0   0   0   0   0   0   0   0   0   1 29 
   8   0   0   0   0   0   0   0   0   3   0   3   0   0   0   0   0   0   5   0   0   2   0   3   0   0   7   0   0   0   0   0   0   0   0   0   0   0   0   0   0   0   0   0   0   0   0   0   0   0   0   1 26 
   4   0   0   0   0   0   0   0   0   0   0   0   0   0   0   9   0   0   0   0   0   0   0   0   0   0   0   0   5   0   0   0   0   0   0   0   0   0   0   0   0   0   0   0   0   0   0   0   0   0   0   1 26 
   8   0   0   0   0   0   0   0   0   0   0   0   0   0   0   0   0   0   0   0   0   0   0   0   0   0   0   0   0   0   0   0   2   0   0   0   0   0   0   0   0   0   0   0   0   0   0   0   0   0   0   1 32
   9   0   0   0   0   0   0   0   0   8   0   0   0   0   0   0   0   0   0   0   0   0   0   0   0   0   0   0   0   0   0   0   0   0   0   0   0   0   0   0   0   0   0   0   0   0   0   0   0   0   0   1 32
   7   0   6   0   5   0   0   0   0   0   0   0   0   0   0   0   0   0   0   0   0   0   0   0   0   0   0   0   0   0   0   0   0   0   0   0   0   0   0   0   0   0   0   0   0   0   0   0   0   0   0   1 32
   8   0   0   0   0   0   3   0   0   0   0   0   0   0   0   0   0   0   5   0   0   0   0   7   0   0   3   0   0   0   7   0   0   0   0   0   0   0   0   0   0   0   0   0   0   0   0   0   0   0   0   1 32
   5   0   0   0   0   0   0   0   0   0   0   0   0   0   9   0   0   0   6   0   0   0   5   0   0   6   0   7   0   0   0   0   0   0   0   0   0   0   0   0   0   0   0   0   0   0   0   0   0   0   0   1 32
   2   0   0   0   0   0   2   0   0   0   2   0   0   0   0   6   0   0   0   0   0   0   0   0   0   0   0   0   0   0   0   0   0   0   0   0   0   0   0   0   0   0   0   0   0   0   0   0   0   0   0   1 32
   0   0   0   0   0   0   0   0   0   0   0   0   0   0   0   0   0   0   0   0   0   0   0   0   0   0   0   0   0   0   0   0   0   0   0   0   0   0   0   0   0   0   0   0   0   0   0   0   0   0   0   0 
